10
2147483647 11 36 79 100 62 29 94 52 90 
11 2147483647 67 8 93 61 23 59 6 36 
36 67 2147483647 84 14 51 86 24 65 3 
79 8 84 2147483647 58 90 86 11 3 10 
100 93 14 58 2147483647 10 67 5 46 65 
62 61 51 90 10 2147483647 9 91 53 24 
29 23 86 86 67 9 2147483647 7 82 1 
94 59 24 11 5 91 7 2147483647 44 91 
52 6 65 3 46 53 82 44 2147483647 63 
90 36 3 10 65 24 1 91 63 2147483647 
